20
0 1 0.11 0.11
0 2 0.33 0.33
0 3 0.19 0.19
0 4 0.25 0.25
0 5 0.44 0.2
0 6 0.82 0.25
0 7 0.16 0.16
0 8 0.59 0.1
0 9 0.36 0.36
0 10 0.21 0.21
0 11 0.27 0.27
0 12 0.3 0.3
0 13 0.27 0.27
0 14 0.52 0.15
0 15 0.21 0.21
0 16 0.16 0.16
0 17 0.7 0.32
0 18 0.85 0.29
0 19 0.22 0.22
1 2 0.55 0.22
1 3 0.66 0.29
1 4 0.23 0.23
1 5 0.62 0.31
1 6 0.77 0.16
1 7 0.14 0.14
1 8 0.01 0.01
1 9 0.27 0.27
1 10 0.1 0.1
1 11 0.18 0.18
1 12 0.24 0.24
1 13 0.38 0.16
1 14 0.74 0.26
1 15 0.12 0.12
1 16 0.27 0.27
1 17 0.5 0.21
1 18 0.44 0.18
1 19 0.4 0.13
2 3 0.44 0.37
2 4 0.31 0.31
2 5 0.34 0.21
2 6 0.49 0.24
2 7 0.22 0.22
2 8 0.23 0.23
2 9 0.61 0.29
2 10 0.62 0.12
2 11 0.44 0.26
2 12 0.32 0.32
2 13 0.6 0.38
2 14 0.24 0.24
2 15 0.3 0.3
2 16 0.66 0.17
2 17 0.34 0.34
2 18 0.53 0.2
2 19 0.76 0.21
3 4 0.3 0.23
3 5 0.67 0.32
3 6 0.19 0.19
3 7 0.3 0.3
3 8 0.28 0.28
3 9 0.3 0.3
3 10 0.25 0.25
3 11 0.16 0.16
3 12 0.11 0.11
3 13 0.21 0.21
3 14 0.28 0.15
3 15 0.62 0.23
3 16 0.28 0.28
3 17 0.18 0.16
3 18 0.28 0.28
3 19 0.16 0.16
4 5 0.56 0.29
4 6 0.26 0.26
4 7 0.46 0.09
4 8 0.24 0.24
4 9 0.37 0.37
4 10 0.22 0.22
4 11 0.66 0.28
4 12 0.72 0.31
4 13 0.14 0.14
4 14 0.58 0.35
4 15 0.66 0.24
4 16 0.54 0.33
4 17 0.12 0.12
4 18 0.3 0.3
4 19 0.68 0.23
5 6 0.72 0.26
5 7 0.36 0.36
5 8 0.52 0.3
5 9 0.44 0.2
5 10 0.86 0.33
5 11 0.76 0.3
5 12 0.27 0.27
5 13 0.74 0.43
5 14 0.58 0.35
5 15 0.34 0.22
5 16 0.04 0.04
5 17 0.38 0.38
5 18 0.76 0.26
5 19 0.58 0.29
6 7 0.17 0.17
6 8 0.64 0.15
6 9 0.17 0.17
6 10 0.12 0.12
6 11 0.04 0.04
6 12 0.29 0.29
6 13 0.5 0.22
6 14 0.34 0.34
6 15 0.52 0.17
6 16 0.6 0.3
6 17 0.17 0.17
6 18 0.46 0.2
6 19 0.64 0.03
7 8 0.15 0.15
7 9 0.28 0.28
7 10 0.71 0.23
7 11 0.52 0.19
7 12 0.22 0.22
7 13 0.6 0.23
7 14 0.81 0.26
7 15 0.26 0.26
7 16 0.32 0.32
7 17 0.58 0.21
7 18 0.49 0.31
7 19 0.4 0.14
8 9 0.65 0.26
8 10 0.11 0.11
8 11 0.44 0.17
8 12 0.23 0.23
8 13 0.17 0.17
8 14 0.66 0.25
8 15 0.44 0.11
8 16 0.26 0.26
8 17 0.22 0.22
8 18 0.56 0.19
8 19 0.41 0.12
9 10 0.23 0.23
9 11 0.4 0.19
9 12 0.4 0.4
9 13 0.28 0.28
9 14 0.45 0.45
9 15 0.28 0.28
9 16 0.62 0.24
9 17 0.28 0.28
9 18 0.44 0.19
9 19 0.28 0.14
10 11 0.14 0.14
10 12 0.82 0.34
10 13 0.26 0.26
10 14 0.32 0.32
10 15 0.52 0.22
10 16 0.29 0.29
10 17 0.5 0.23
10 18 0.08 0.08
10 19 0.09 0.09
11 12 0.7 0.27
11 13 0.7 0.24
11 14 0.68 0.31
11 15 0.55 0.19
11 16 0.44 0.33
11 17 0.19 0.19
11 18 0.38 0.17
11 19 0.45 0.05
12 13 0.82 0.3
12 14 0.64 0.26
12 15 0.12 0.12
12 16 0.31 0.31
12 17 0.74 0.27
12 18 0.8 0.39
12 19 0.26 0.26
13 14 0.28 0.28
13 15 0.82 0.22
13 16 0.39 0.39
13 17 0.05 0.05
13 18 0.25 0.25
13 19 0.19 0.19
14 15 0.48 0.32
14 16 0.66 0.31
14 17 0.46 0.31
14 18 0.4 0.4
14 19 0.31 0.31
15 16 0.52 0.26
15 17 0.68 0.17
15 18 0.3 0.3
15 19 0.14 0.14
16 17 0.56 0.34
16 18 0.3 0.3
16 19 0.54 0.28
17 18 0.2 0.2
17 19 0.14 0.14
18 19 0.17 0.17
